
Gurobi 9.1.1 (win64) logging started Mon Apr 18 04:24:03 2022

Changed value of parameter LogFile to ./Log/Pattern_Appro_solver_500_order_25_batch.log
   Prev:   Default: 
Gurobi Optimizer version 9.1.1 build v9.1.1rc0 (win64)
Thread count: 6 physical cores, 12 logical processors, using up to 12 threads
Optimize a model with 1558 rows, 9525 columns and 44575 nonzeros
Model fingerprint: 0xd271ca6e
Variable types: 0 continuous, 9525 integer (8350 binary)
Coefficient statistics:
  Matrix range     [1e+00, 2e+01]
  Objective range  [1e+00, 4e+01]
  Bounds range     [1e+00, 1e+01]
  RHS range        [1e+00, 2e+01]
Found heuristic solution: objective 8286.0000000
Presolve removed 119 rows and 466 columns
Presolve time: 0.05s
Presolved: 1439 rows, 9059 columns, 41062 nonzeros
Variable types: 0 continuous, 9059 integer (7919 binary)

Root relaxation: objective 1.231787e+03, 11076 iterations, 0.53 seconds

    Nodes    |    Current Node    |     Objective Bounds      |     Work
 Expl Unexpl |  Obj  Depth IntInf | Incumbent    BestBd   Gap | It/Node Time

     0     0 1231.78744    0  450 8286.00000 1231.78744  85.1%     -    0s
H    0     0                    5849.0000000 1231.78744  78.9%     -    0s
H    0     0                    5826.0000000 1231.78744  78.9%     -    0s
H    0     0                    5676.0000000 1231.78744  78.3%     -    1s
H    0     0                    5581.0000000 1231.78744  77.9%     -    1s
H    0     0                    5424.0000000 1231.78744  77.3%     -    1s
H    0     0                    5390.0000000 1231.78744  77.1%     -    1s
H    0     0                    4910.0000000 1231.78744  74.9%     -    1s
H    0     0                    4745.0000000 1231.78744  74.0%     -    1s
H    0     0                    4628.0000000 1286.41669  72.2%     -    1s
H    0     0                    4499.0000000 1286.41669  71.4%     -    1s
     0     0 1287.38482    0  816 4499.00000 1287.38482  71.4%     -    1s
H    0     0                    4409.0000000 1287.38482  70.8%     -    1s
     0     0 1287.38482    0  839 4409.00000 1287.38482  70.8%     -    1s
     0     0 1287.38482    0  865 4409.00000 1287.38482  70.8%     -    1s
     0     0 1287.38501    0  865 4409.00000 1287.38501  70.8%     -    1s
H    0     0                    4352.0000000 1287.38501  70.4%     -    2s
H    0     0                    4332.0000000 1287.38501  70.3%     -    2s
     0     0 1339.12382    0 1176 4332.00000 1339.12382  69.1%     -    2s
H    0     0                    4316.0000000 1339.12382  69.0%     -    2s
H    0     0                    4260.0000000 1339.12382  68.6%     -    2s
     0     0 1347.54790    0 1255 4260.00000 1347.54790  68.4%     -    2s
     0     0 1349.76516    0 1208 4260.00000 1349.76516  68.3%     -    3s
H    0     0                    4258.0000000 1349.76516  68.3%     -    3s
     0     0 1350.00129    0 1221 4258.00000 1350.00129  68.3%     -    3s
     0     0 1350.03181    0 1212 4258.00000 1350.03181  68.3%     -    3s
H    0     0                    4253.0000000 1350.03181  68.3%     -    4s
H    0     0                    4243.0000000 1350.03181  68.2%     -    4s
H    0     0                    4229.0000000 1350.03181  68.1%     -    4s
H    0     0                    4214.0000000 1350.03181  68.0%     -    4s
     0     0 1374.49825    0 1650 4214.00000 1374.49825  67.4%     -    5s
H    0     0                    4193.0000000 1374.49825  67.2%     -    5s
     0     0 1379.97154    0 1749 4193.00000 1379.97154  67.1%     -    6s
     0     0 1381.04007    0 1807 4193.00000 1381.04007  67.1%     -    7s
     0     0 1381.52940    0 1824 4193.00000 1381.52940  67.1%     -    8s
     0     0 1381.62099    0 1870 4193.00000 1381.62099  67.0%     -    8s
     0     0 1395.15184    0 2168 4193.00000 1395.15184  66.7%     -   12s
H    0     0                    4191.0000000 1395.15184  66.7%     -   15s
H    0     0                    4180.0000000 1395.15184  66.6%     -   15s
H    0     0                    4165.0000000 1395.15184  66.5%     -   15s
H    0     0                    4159.0000000 1395.15184  66.5%     -   15s
     0     0 1401.48223    0 2268 4159.00000 1401.48223  66.3%     -   15s
H    0     0                    4107.0000000 1401.48223  65.9%     -   17s
H    0     0                    4098.0000000 1401.48223  65.8%     -   17s
     0     0 1402.98722    0 2303 4098.00000 1402.98722  65.8%     -   17s
H    0     0                    4095.0000000 1402.98722  65.7%     -   19s
H    0     0                    4073.0000000 1402.98722  65.6%     -   19s
H    0     0                    4066.0000000 1402.98722  65.5%     -   19s
     0     0 1403.90595    0 2350 4066.00000 1403.90595  65.5%     -   19s
     0     0 1404.06612    0 2346 4066.00000 1404.06612  65.5%     -   20s
H    0     0                    4063.0000000 1404.06612  65.4%     -   26s
H    0     0                    4058.0000000 1404.06612  65.4%     -   26s
H    0     0                    4042.0000000 1404.06612  65.3%     -   26s
H    0     0                    4029.0000000 1404.06612  65.2%     -   26s
H    0     0                    4014.0000000 1404.06612  65.0%     -   26s
     0     0 1413.57250    0 2659 4014.00000 1413.57250  64.8%     -   26s
H    0     0                    4003.0000000 1413.57250  64.7%     -   26s
H    0     0                    3983.0000000 1413.57250  64.5%     -   32s
     0     0 1418.65586    0 2908 3983.00000 1418.65586  64.4%     -   32s
H    0     0                    3969.0000000 1418.65586  64.3%     -   36s
     0     0 1420.45115    0 2850 3969.00000 1420.45115  64.2%     -   36s
H    0     0                    3968.0000000 1420.45115  64.2%     -   39s
     0     0 1421.52325    0 2979 3968.00000 1421.52325  64.2%     -   39s
     0     0 1421.74474    0 2939 3968.00000 1421.74474  64.2%     -   42s
H    0     0                    3962.0000000 1421.74474  64.1%     -   42s
H    0     0                    3929.0000000 1421.74474  63.8%     -   49s
H    0     0                    3925.0000000 1421.74474  63.8%     -   49s
H    0     0                    3905.0000000 1421.74474  63.6%     -   49s
     0     0 1429.07737    0 3243 3905.00000 1429.07737  63.4%     -   49s
     0     0 1433.53949    0 3450 3905.00000 1433.53949  63.3%     -   58s
     0     0          -    0      3905.00000 1433.53949  63.3%     -   60s

Cutting planes:
  Gomory: 111
  Cover: 1740
  Implied bound: 192
  Clique: 1234
  MIR: 100
  StrongCG: 35
  Flow cover: 158
  GUB cover: 6
  Zero half: 63
  Relax-and-lift: 21

Explored 1 nodes (84196 simplex iterations) in 60.02 seconds
Thread count was 12 (of 12 available processors)

Solution count 10: 3905 3925 3929 ... 4029

Time limit reached
Best objective 3.905000000000e+03, best bound 1.434000000000e+03, gap 63.2778%

Gurobi 9.5.1 (win64) logging started Tue Apr 19 15:42:04 2022

Set parameter LogFile to value "./Log/Pattern_Appro_solver_500_order_25_batch.log"
Gurobi Optimizer version 9.5.1 build v9.5.1rc2 (win64)
Thread count: 6 physical cores, 12 logical processors, using up to 12 threads
Optimize a model with 1560 rows, 9575 columns and 44725 nonzeros
Model fingerprint: 0x865461ae
Variable types: 0 continuous, 9575 integer (8375 binary)
Coefficient statistics:
  Matrix range     [1e+00, 2e+01]
  Objective range  [1e+00, 4e+01]
  Bounds range     [1e+00, 1e+01]
  RHS range        [1e+00, 2e+01]
Found heuristic solution: objective 8197.0000000
Presolve removed 125 rows and 518 columns
Presolve time: 0.05s
Presolved: 1435 rows, 9057 columns, 40625 nonzeros
Variable types: 0 continuous, 9057 integer (7866 binary)

Root relaxation: objective 1.283515e+03, 11239 iterations, 0.54 seconds (0.56 work units)

    Nodes    |    Current Node    |     Objective Bounds      |     Work
 Expl Unexpl |  Obj  Depth IntInf | Incumbent    BestBd   Gap | It/Node Time

     0     0 1283.51467    0  441 8197.00000 1283.51467  84.3%     -    0s
H    0     0                    5845.0000000 1283.51467  78.0%     -    0s
H    0     0                    5824.0000000 1283.51467  78.0%     -    0s
H    0     0                    5628.0000000 1283.51467  77.2%     -    0s
H    0     0                    5514.0000000 1283.51467  76.7%     -    0s
H    0     0                    5487.0000000 1283.51467  76.6%     -    0s
H    0     0                    5082.0000000 1352.15748  73.4%     -    1s
H    0     0                    4978.0000000 1352.15748  72.8%     -    1s
     0     0 1352.15748    0  795 4978.00000 1352.15748  72.8%     -    1s
H    0     0                    4622.0000000 1352.15748  70.7%     -    1s
H    0     0                    4259.0000000 1356.01439  68.2%     -    1s
H    0     0                    4213.0000000 1356.01439  67.8%     -    1s
H    0     0                    4206.0000000 1356.01439  67.8%     -    1s
     0     0 1356.01439    0  835 4206.00000 1356.01439  67.8%     -    1s
     0     0 1356.28481    0  854 4206.00000 1356.28481  67.8%     -    1s
     0     0 1356.28784    0  859 4206.00000 1356.28784  67.8%     -    1s
H    0     0                    4192.0000000 1406.91151  66.4%     -    1s
H    0     0                    4176.0000000 1406.91151  66.3%     -    1s
H    0     0                    4130.0000000 1406.91151  65.9%     -    1s
H    0     0                    4123.0000000 1406.91151  65.9%     -    1s
     0     0 1406.91151    0 1150 4123.00000 1406.91151  65.9%     -    1s
H    0     0                    4103.0000000 1412.43435  65.6%     -    2s
     0     0 1412.43435    0 1192 4103.00000 1412.43435  65.6%     -    2s
     0     0 1413.23218    0 1230 4103.00000 1413.23218  65.6%     -    2s
     0     0 1413.35134    0 1259 4103.00000 1413.35134  65.6%     -    2s
     0     0 1413.39167    0 1232 4103.00000 1413.39167  65.6%     -    2s
H    0     0                    4092.0000000 1413.39167  65.5%     -    2s
H    0     0                    4069.0000000 1413.39167  65.3%     -    2s
H    0     0                    4068.0000000 1437.80729  64.7%     -    4s
H    0     0                    4067.0000000 1437.80729  64.6%     -    4s
     0     0 1437.80729    0 1722 4067.00000 1437.80729  64.6%     -    4s
H    0     0                    4059.0000000 1437.80729  64.6%     -    4s
H    0     0                    3966.0000000 1442.89792  63.6%     -    5s
     0     0 1442.89792    0 1733 3966.00000 1442.89792  63.6%     -    5s
     0     0 1444.26122    0 1779 3966.00000 1444.26122  63.6%     -    6s
     0     0 1444.50320    0 1771 3966.00000 1444.50320  63.6%     -    7s
     0     0 1444.56496    0 1793 3966.00000 1444.56496  63.6%     -    7s
H    0     0                    3964.0000000 1455.64898  63.3%     -    9s
H    0     0                    3961.0000000 1455.64898  63.3%     -    9s
     0     0 1455.64898    0 2138 3961.00000 1455.64898  63.3%     -    9s
H    0     0                    3954.0000000 1459.50057  63.1%     -   12s
     0     0 1459.50057    0 2250 3954.00000 1459.50057  63.1%     -   12s
H    0     0                    3952.0000000 1461.10124  63.0%     -   13s
     0     0 1461.10124    0 2213 3952.00000 1461.10124  63.0%     -   13s
H    0     0                    3950.0000000 1461.82711  63.0%     -   15s
     0     0 1461.82711    0 2328 3950.00000 1461.82711  63.0%     -   15s
H    0     0                    3946.0000000 1462.08439  62.9%     -   16s
     0     0 1462.08439    0 2322 3946.00000 1462.08439  62.9%     -   16s
     0     0 1462.23932    0 2372 3946.00000 1462.23932  62.9%     -   17s
H    0     0                    3938.0000000 1471.54037  62.6%     -   21s
     0     0 1471.54037    0 2604 3938.00000 1471.54037  62.6%     -   21s
H    0     0                    3937.0000000 1476.73227  62.5%     -   25s
H    0     0                    3929.0000000 1476.73227  62.4%     -   25s
     0     0 1476.73227    0 2764 3929.00000 1476.73227  62.4%     -   25s
H    0     0                    3928.0000000 1479.48634  62.3%     -   29s
     0     0 1479.48634    0 2768 3928.00000 1479.48634  62.3%     -   29s
     0     0 1480.44058    0 2814 3928.00000 1480.44058  62.3%     -   32s
H    0     0                    3918.0000000 1481.18638  62.2%     -   34s
     0     0 1481.18638    0 2895 3918.00000 1481.18638  62.2%     -   34s
     0     0 1481.37101    0 2935 3918.00000 1481.37101  62.2%     -   36s
H    0     0                    3902.0000000 1489.67518  61.8%     -   42s
H    0     0                    3900.0000000 1489.67518  61.8%     -   42s
     0     0 1489.67518    0 3063 3900.00000 1489.67518  61.8%     -   42s
H    0     0                    3899.0000000 1494.84351  61.7%     -   49s
H    0     0                    3894.0000000 1494.84351  61.6%     -   49s
     0     0 1494.84351    0 3315 3894.00000 1494.84351  61.6%     -   49s
H    0     0                    3893.0000000 1497.22061  61.5%     -   56s
     0     0 1497.22061    0 3409 3893.00000 1497.22061  61.5%     -   56s
H    0     0                    3868.0000000 1498.31716  61.3%     -   61s
H    0     0                    3866.0000000 1498.31716  61.2%     -   61s
     0     0 1498.31716    0 3479 3866.00000 1498.31716  61.2%     -   61s
H    0     0                    3851.0000000 1498.87276  61.1%     -   66s
     0     0 1498.87276    0 3601 3851.00000 1498.87276  61.1%     -   66s
H    0     0                    3850.0000000 1499.19125  61.1%     -   71s
     0     0 1499.19125    0 3660 3850.00000 1499.19125  61.1%     -   71s
H    0     0                    3843.0000000 1504.90895  60.8%     -   82s
H    0     0                    3816.0000000 1504.90895  60.6%     -   82s
     0     0 1504.90895    0 3785 3816.00000 1504.90895  60.6%     -   82s
H    0     0                    3801.0000000 1504.90895  60.4%     -   82s
     0     0 1506.10106    0 3866 3801.00000 1506.10106  60.4%     -   89s
     0     0 1506.46335    0 3955 3801.00000 1506.46335  60.4%     -   93s
     0     0          -    0      3801.00000 1506.46335  60.4%     -  100s

Cutting planes:
  Gomory: 14
  Cover: 2156
  Implied bound: 263
  Clique: 1301
  MIR: 92
  StrongCG: 27
  Flow cover: 147
  GUB cover: 6
  Zero half: 13
  Relax-and-lift: 23

Explored 1 nodes (127923 simplex iterations) in 100.03 seconds (97.40 work units)
Thread count was 12 (of 12 available processors)

Solution count 10: 3801 3816 3843 ... 3899

Time limit reached
Best objective 3.801000000000e+03, best bound 1.507000000000e+03, gap 60.3525%

Gurobi 9.5.1 (win64) logging started Tue Apr 19 15:47:53 2022

Set parameter LogFile to value "./Log/Pattern_Appro_solver_500_order_25_batch.log"
Gurobi Optimizer version 9.5.1 build v9.5.1rc2 (win64)
Thread count: 6 physical cores, 12 logical processors, using up to 12 threads
Optimize a model with 1580 rows, 10075 columns and 48500 nonzeros
Model fingerprint: 0x82093798
Variable types: 0 continuous, 10075 integer (8975 binary)
Coefficient statistics:
  Matrix range     [1e+00, 2e+01]
  Objective range  [1e+00, 4e+01]
  Bounds range     [1e+00, 1e+01]
  RHS range        [1e+00, 2e+01]
Found heuristic solution: objective 8642.0000000
Presolve removed 112 rows and 413 columns
Presolve time: 0.06s
Presolved: 1468 rows, 9662 columns, 45319 nonzeros
Variable types: 0 continuous, 9662 integer (8623 binary)

Root relaxation: objective 1.208301e+03, 11649 iterations, 0.61 seconds (0.61 work units)

    Nodes    |    Current Node    |     Objective Bounds      |     Work
 Expl Unexpl |  Obj  Depth IntInf | Incumbent    BestBd   Gap | It/Node Time

     0     0 1208.30121    0  490 8642.00000 1208.30121  86.0%     -    0s
H    0     0                    6387.0000000 1208.30121  81.1%     -    0s
H    0     0                    6050.0000000 1208.30121  80.0%     -    0s
H    0     0                    5874.0000000 1208.30121  79.4%     -    0s
H    0     0                    5760.0000000 1208.30121  79.0%     -    0s
H    0     0                    5325.0000000 1274.66677  76.1%     -    1s
     0     0 1274.66677    0  913 5325.00000 1274.66677  76.1%     -    1s
H    0     0                    4967.0000000 1274.66677  74.3%     -    1s
     0     0 1276.61839    0  911 4967.00000 1276.61839  74.3%     -    1s
     0     0 1276.72938    0  904 4967.00000 1276.72938  74.3%     -    1s
     0     0 1276.74185    0  915 4967.00000 1276.74185  74.3%     -    1s
H    0     0                    4953.0000000 1325.04281  73.2%     -    2s
H    0     0                    4900.0000000 1325.04281  73.0%     -    2s
H    0     0                    4769.0000000 1325.04281  72.2%     -    2s
H    0     0                    4700.0000000 1325.04281  71.8%     -    2s
H    0     0                    4610.0000000 1325.04281  71.3%     -    2s
     0     0 1325.04281    0 1335 4610.00000 1325.04281  71.3%     -    2s
H    0     0                    4514.0000000 1331.76766  70.5%     -    3s
     0     0 1331.76766    0 1403 4514.00000 1331.76766  70.5%     -    3s
H    0     0                    4498.0000000 1335.48726  70.3%     -    3s
     0     0 1335.48726    0 1433 4498.00000 1335.48726  70.3%     -    3s
     0     0 1336.25052    0 1461 4498.00000 1336.25052  70.3%     -    3s
     0     0 1336.27131    0 1450 4498.00000 1336.27131  70.3%     -    3s
H    0     0                    4466.0000000 1361.58106  69.5%     -    6s
H    0     0                    4461.0000000 1361.58106  69.5%     -    6s
     0     0 1361.58106    0 1883 4461.00000 1361.58106  69.5%     -    6s
H    0     0                    4455.0000000 1361.58106  69.4%     -    6s
H    0     0                    4430.0000000 1369.38374  69.1%     -    8s
H    0     0                    4421.0000000 1369.38374  69.0%     -    8s
H    0     0                    4413.0000000 1369.38374  69.0%     -    8s
H    0     0                    4405.0000000 1369.38374  68.9%     -    8s
     0     0 1369.38374    0 1924 4405.00000 1369.38374  68.9%     -    8s
H    0     0                    4397.0000000 1373.39731  68.8%     -   10s
     0     0 1373.39731    0 1924 4397.00000 1373.39731  68.8%     -   10s
     0     0 1374.12854    0 1956 4397.00000 1374.12854  68.7%     -   11s
     0     0 1374.33253    0 2006 4397.00000 1374.33253  68.7%     -   12s
     0     0 1374.54076    0 2043 4397.00000 1374.54076  68.7%     -   13s
     0     0 1374.59792    0 2071 4397.00000 1374.59792  68.7%     -   13s
H    0     0                    4383.0000000 1374.59792  68.6%     -   13s
H    0     0                    4340.0000000 1389.24668  68.0%     -   18s
H    0     0                    4331.0000000 1389.24668  67.9%     -   18s
     0     0 1389.24668    0 2408 4331.00000 1389.24668  67.9%     -   18s
H    0     0                    4324.0000000 1389.24668  67.9%     -   18s
H    0     0                    4322.0000000 1394.80166  67.7%     -   24s
H    0     0                    4308.0000000 1394.80166  67.6%     -   24s
     0     0 1394.80166    0 2541 4308.00000 1394.80166  67.6%     -   24s
H    0     0                    4268.0000000 1396.85354  67.3%     -   29s
H    0     0                    4245.0000000 1396.85354  67.1%     -   29s
     0     0 1396.85354    0 2540 4245.00000 1396.85354  67.1%     -   29s
H    0     0                    4227.0000000 1398.00947  66.9%     -   34s
     0     0 1398.00947    0 2654 4227.00000 1398.00947  66.9%     -   34s
H    0     0                    4197.0000000 1398.35047  66.7%     -   37s
H    0     0                    4138.0000000 1398.35047  66.2%     -   37s
     0     0 1398.35047    0 2643 4138.00000 1398.35047  66.2%     -   37s
     0     0 1398.49043    0 2738 4138.00000 1398.49043  66.2%     -   39s
H    0     0                    4137.0000000 1405.28533  66.0%     -   49s
     0     0 1405.28533    0 2940 4137.00000 1405.28533  66.0%     -   49s
H    0     0                    4129.0000000 1405.28533  66.0%     -   49s
H    0     0                    4121.0000000 1409.15654  65.8%     -   62s
H    0     0                    4115.0000000 1409.15654  65.8%     -   62s
H    0     0                    4114.0000000 1409.15654  65.7%     -   62s
     0     0 1409.15654    0 3206 4114.00000 1409.15654  65.7%     -   62s
H    0     0                    4106.0000000 1411.68795  65.6%     -   70s
     0     0 1411.68795    0 3195 4106.00000 1411.68795  65.6%     -   70s
     0     0 1412.83091    0 3321 4106.00000 1412.83091  65.6%     -   77s
     0     0 1413.18935    0 3300 4106.00000 1413.18935  65.6%     -   83s
     0     0 1413.35380    0 3347 4106.00000 1413.35380  65.6%     -   86s
     0     0 1417.20672    0 3467 4106.00000 1417.20672  65.5%     -   98s
     0     0          -    0      4106.00000 1417.20672  65.5%     -  100s

Cutting planes:
  Gomory: 22
  Cover: 1562
  Implied bound: 168
  Clique: 991
  MIR: 74
  StrongCG: 22
  Flow cover: 81
  GUB cover: 2
  Zero half: 9
  Relax-and-lift: 18

Explored 1 nodes (105009 simplex iterations) in 100.03 seconds (78.00 work units)
Thread count was 12 (of 12 available processors)

Solution count 10: 4106 4114 4115 ... 4245

Time limit reached
Best objective 4.106000000000e+03, best bound 1.418000000000e+03, gap 65.4652%
